50
50 50
1 40 572
2 40 115
3 37 463
4 37 611
5 37 888
6 35 203
7 35 642
8 34 80
9 33 530
10 33 228
11 32 751
12 31 108
13 29 442
14 29 848
15 29 886
16 29 772
17 27 553
18 27 417
19 27 635
20 26 42
21 25 761
22 24 394
23 24 487
24 24 784
25 24 120
26 22 211
27 21 970
28 21 60
29 20 175
30 20 508
31 19 613
32 18 1
33 18 757
34 16 423
35 16 917
36 16 527
37 15 68
38 15 163
39 15 661
40 14 753
41 12 957
42 12 35
43 12 65
44 11 643
45 11 955
46 11 345
47 11 786
48 11 931
49 11 719
50 10 940
